2
1000 3
47
150 1 2
152 1 2
153 1 1
154 1 3
155 1 1
156 1 3
157 1 1
158 1 5
160 1 2
162 1 3
163 1 3
164 1 3
165 1 2
166 1 5
167 1 1
168 1 6
169 1 2
170 1 2
171 1 2
172 1 7
173 1 3
174 1 3
175 1 2
176 1 3
177 1 4
178 1 3
179 1 2
180 1 2
181 1 1
182 1 1
183 1 1
184 1 2
185 1 1
186 1 4
187 1 3
188 1 3
189 1 3
190 1 1
191 1 3
193 1 1
194 1 3
195 1 4
196 1 3
197 1 3
198 1 2
199 1 1
200 1 2
